MARKOV
111
2 2 2 2 2 2 2 2 2 2 2 2 2 2 2 2 2 2 2 2 2 2 2 2 2 2 2 2 2 2 2 2 2 2 2 2 2 2 2 2 2 2 2 2 2 2 2 2 2 2 2 2 2 2 2 2 2 2 2 2 2 2 2 2 2 2 2 2 2 2 2 2 2 2 2 2 2 2 2 2 2 2 2 2 2 2 2 2 2 2 2 2 2 2 2 2 2 2 2 2 2 2 2 2 2 2 2 2 2 2 2 
160
2 18 23
4 15 20 45 81
2 39 79
1 68
2 7 8
2 18 22
1 94
3 13 14 35
1 62
1 77
1 60
1 83
2 14 17
2 15 17
1 91
1 6
1 106
2 15 81
2 15 104
2 15 104
5 12 23 53 54 108
2 14 98
4 8 21 40 85
2 13 17
5 12 23 36 53 54
3 19 20 35
1 72
2 12 17
1 10
2 8 85
1 37
1 73
2 21 105
1 33
1 4
3 18 19 34
2 14 15
1 74
3 14 44 108
1 35
1 78
2 7 8
1 50
1 27
1 38
2 14 86
2 20 21
2 14 16
3 12 13 34
2 15 16
4 21 85 86 88
2 45 81
2 13 15
1 95
2 43 86
5 12 23 53 54 110
2 12 15
2 8 97
1 32
1 24
5 12 23 53 54 109
1 103
1 0
2 8 35
1 46
2 13 16
2 40 85
1 89
2 20 23
2 12 16
2 25 34
1 63
1 65
4 15 79 81 82
2 20 22
2 48 82
1 3
1 57
1 5
3 14 44 110
2 18 20
3 14 44 109
2 20 81
2 21 86
3 21 49 88
1 59
2 21 88
3 14 44 98
1 66
1 70
4 8 15 39 79
1 80
2 51 100
1 92
1 84
2 21 23
1 55
1 1
1 2
4 14 21 43 108
2 21 22
2 15 82
2 19 21
1 30
1 42
1 87
3 15 48 82
2 51 100
2 12 14
4 54 108 109 110
2 21 85
2 12 109
1 11
1 61
2 18 20
3 8 41 97
1 75
1 31
1 64
2 8 79
2 16 17
1 9
2 19 23
1 58
2 19 22
1 96
2 20 99
1 71
1 52
3 20 47 99
1 101
1 34
2 25 35
2 41 97
4 97 98 99 100
2 23 108
4 14 21 43 110
1 26
2 44 98
2 7 34
1 29
4 14 21 43 109
2 18 21
2 49 88
1 93
2 21 105
4 14 21 43 86
1 102
1 28
1 69
2 15 79
1 90
2 47 99
1 107
1 67
2 22 23
1 76
1 56
4 53 108 109 110
2 12 14

4
 100 100 100 1.00000000

16
 100 100 100 100 100 100 100 100 100 100 100 1.00000000 100 100 100 100

4
 100 1.00000000 100 100

2
 100 1.00000000

4
 100 100 1.00000000 100

4
 100 100 100 1.00000000

2
 100 1.00000000

8
 100 100 100 100 100 1.00000000 100 100

2
 100 1.00000000

2
 100 1.00000000

2
 100 1.00000000

2
 100 1.00000000

4
 100 100 100 1.00000000

4
 100 100 100 1.00000000

2
 100 1.00000000

2
 100 1.00000000

2
 100 1.00000000

4
 100 1.00000000 100 100

4
 100 100 1.00000000 100

4
 100 1.00000000 100 100

32
 100 100 100 100 100 100 100 100 100 100 100 100 100 100 100 100 100 100 100 100 100 100 100 1.00000000 100 100 100 100 100 100 100 100

4
 100 1.00000000 100 100

16
 100 100 100 100 100 100 100 100 100 100 100 1.00000000 100 100 100 100

4
 100 100 100 1.00000000

32
 198.99903988 198.99903988 198.99903988 198.99903988 198.99903988 198.99903988 198.99903988 198.99903988 198.99903988 198.99903988 198.99903988 198.99903988 198.99903988 198.99903988 198.99903988 198.99903988 198.99903988 198.99903988 198.99903988 198.99903988 198.99903988 198.99903988 198.99903988 1.00000000 198.99903988 198.99903988 198.99903988 198.99903988 198.99903988 198.99903988 198.99903988 198.99903988

8
 100 100 100 100 100 1.00000000 100 100

2
 100 1.00000000

4
 100 100 100 1.00000000

2
 100 1.00000000

4
 100 1.00000000 100 100

2
 100 1.00000000

2
 100 1.00000000

4
 100 1.00000000 100 100

2
 100 1.00000000

2
 100 1.00000000

8
 100 100 100 100 100 1.00000000 100 100

4
 100 100 100 1.00000000

2
 100 1.00000000

8
 1.39584505 1.39584505 1.39584505 1.39584505 1.39584505 1.00000000 1.39584505 1.39584505

2
 1.00000000 1.40003887

2
 100 1.00000000

4
 100 1.00000000 100 100

2
 100 1.00000000

2
 100 1.00000000

2
 100 1.00000000

4
 100 1.00000000 100 100

4
 100 100 100 1.00000000

4
 100 100 100 1.00000000

8
 100 100 100 100 100 1.00000000 100 100

4
 100 100 100 1.00000000

16
 100 100 100 100 100 100 100 100 1.00000000 100 100 100 100 100 100 100

4
 100 1.00000000 100 100

4
 100 100 100 1.00000000

2
 100 1.00000000

4
 100 1.00000000 100 100

32
 100 100 100 100 100 100 100 100 100 100 100 100 100 100 100 100 100 100 100 100 100 100 100 1.00000000 100 100 100 100 100 100 100 100

4
 100 100 100 1.00000000

4
 100 1.00000000 100 100

2
 100 1.00000000

2
 1.00000000 100

32
 100 100 100 100 100 100 100 100 100 100 100 100 100 100 100 100 100 100 100 100 100 100 100 1.00000000 100 100 100 100 100 100 100 100

2
 100 1.00000000

2
 100 1.00000000

4
 100 100 1.00000000 100

2
 100 1.00000000

4
 100 100 100 1.00000000

4
 100 1.00000000 100 100

2
 100 1.00000000

4
 100 100 100 1.00000000

4
 100 100 100 1.00000000

4
 100 100 1.00000000 100

2
 100 1.00000000

2
 100 1.00000000

16
 100 100 100 100 100 100 100 100 1.00000000 100 100 100 100 100 100 100

4
 100 100 100 1.00000000

4
 100 1.00000000 100 100

2
 100 1.00000000

2
 100 1.00000000

2
 100 1.00000000

8
 1.39584505 1.39584505 1.39584505 1.39584505 1.39584505 1.00000000 1.39584505 1.39584505

4
 100 100 1.00000000 100

8
 1.39584505 1.39584505 1.39584505 1.39584505 1.39584505 1.00000000 1.39584505 1.39584505

4
 100 1.00000000 100 100

4
 100 1.00000000 100 100

8
 100 100 100 100 100 1.00000000 100 100

2
 100 1.00000000

4
 100 1.00000000 100 100

8
 100 100 100 100 100 1.00000000 100 100

2
 100 1.00000000

2
 100 1.00000000

16
 100 100 100 100 100 100 100 100 100 100 100 1.00000000 100 100 100 100

2
 100 1.00000000

4
 100 1.00000000 100 100

2
 100 1.00000000

2
 100 1.00000000

4
 100 100 100 1.00000000

2
 100 1.00000000

2
 100 1.00000000

2
 100 1.00000000

16
 1.39584505 1.39584505 1.39584505 1.39584505 1.39584505 1.39584505 1.39584505 1.39584505 1.39584505 1.39584505 1.39584505 1.00000000 1.39584505 1.39584505 1.39584505 1.39584505

4
 100 100 100 1.00000000

4
 100 1.00000000 100 100

4
 100 100 100 1.00000000

2
 100 1.00000000

2
 100 1.00000000

2
 100 1.00000000

8
 100 100 100 100 100 1.00000000 100 100

4
 100 100 1.00000000 100

4
 100 1.00000000 100 100

16
 100 100 100 100 100 100 100 1.00000000 100 100 100 100 100 100 100 100

4
 100 1.00000000 100 100

4
 100 1.00000000 100 100

2
 100 1.00000000

2
 100 1.00000000

4
 100 1.00000000 100 100

8
 100 100 100 100 100 1.00000000 100 100

2
 100 1.00000000

2
 100 1.00000000

2
 100 1.00000000

4
 100 1.00000000 100 100

4
 100 100 100 1.00000000

2
 100 1.00000000

4
 100 100 100 1.00000000

2
 100 1.00000000

4
 100 100 100 1.00000000

2
 100 1.00000000

4
 100 1.00000000 100 100

2
 100 1.00000000

2
 100 1.00000000

8
 100 100 100 100 100 1.00000000 100 100

2
 100 1.00000000

2
 1.00000000 1.40003887

4
 100 100 1.00000000 100

4
 100 1.00000000 100 100

16
 1.00000000 100 100 100 100 100 100 100 100 100 100 100 100 100 100 100

4
 100 1.00000000 100 100

16
 1.39584505 1.39584505 1.39584505 1.39584505 1.39584505 1.39584505 1.39584505 1.39584505 1.39584505 1.39584505 1.39584505 1.00000000 1.39584505 1.39584505 1.39584505 1.39584505

2
 100 1.00000000

4
 100 1.00000000 100 100

4
 100 100 1.00000000 100

2
 100 1.00000000

16
 1.39584505 1.39584505 1.39584505 1.39584505 1.39584505 1.39584505 1.39584505 1.39584505 1.39584505 1.39584505 1.39584505 1.00000000 1.39584505 1.39584505 1.39584505 1.39584505

4
 100 100 100 1.00000000

4
 100 1.00000000 100 100

2
 100 1.00000000

4
 100 100 1.00000000 100

16
 100 100 100 100 100 100 100 100 100 100 100 1.00000000 100 100 100 100

2
 100 1.00000000

2
 100 1.00000000

2
 100 1.00000000

4
 100 1.00000000 100 100

2
 100 1.00000000

4
 100 1.00000000 100 100

2
 1.00000000 100

2
 100 1.00000000

4
 100 100 100 1.00000000

2
 100 1.00000000

2
 100 1.00000000

16
 100 100 100 100 100 100 100 1.00000000 100 100 100 100 100 100 100 100

4
 100 100 1.00000000 100

